inputs/artificial/xor.smt2.cnf
p cnf 132 145
cr 69 70 71 72 73 74 75 76 77 78 79 80 81 82 83 84 85 86 87 88 89 90 91 92 93 94 95 96 97 98 99 100 101 102 103 104 105 106 107 108 109 110 111 112 113 114 115 116 117 118 119 120 121 122 123 124 125 126 127 128 129 130 131 132
1 -69 0
-1 69 0
2 -70 0
-2 70 0
3 -71 0
-3 71 0
4 -72 0
-4 72 0
5 -73 0
-5 73 0
6 -74 0
-6 74 0
7 -75 0
-7 75 0
8 -76 0
-8 76 0
9 -77 0
-9 77 0
10 -78 0
-10 78 0
11 -79 0
-11 79 0
12 -80 0
-12 80 0
13 -81 0
-13 81 0
14 -82 0
-14 82 0
15 -83 0
-15 83 0
16 -84 0
-16 84 0
17 -85 0
-17 85 0
18 -86 0
-18 86 0
19 -87 0
-19 87 0
20 -88 0
-20 88 0
21 -89 0
-21 89 0
22 -90 0
-22 90 0
23 -91 0
-23 91 0
24 -92 0
-24 92 0
25 -93 0
-25 93 0
26 -94 0
-26 94 0
27 -95 0
-27 95 0
28 -96 0
-28 96 0
29 -97 0
-29 97 0
30 -98 0
-30 98 0
31 -99 0
-31 99 0
32 -100 0
-32 100 0
33 -101 0
-33 101 0
34 -102 0
-34 102 0
35 -103 0
-35 103 0
36 -104 0
-36 104 0
37 -105 0
-37 105 0
38 -106 0
-38 106 0
39 -107 0
-39 107 0
40 -108 0
-40 108 0
41 -109 0
-41 109 0
42 -110 0
-42 110 0
43 -111 0
-43 111 0
44 -112 0
-44 112 0
45 -113 0
-45 113 0
46 -114 0
-46 114 0
47 -115 0
-47 115 0
48 -116 0
-48 116 0
49 -117 0
-49 117 0
50 -118 0
-50 118 0
51 -119 0
-51 119 0
52 -120 0
-52 120 0
53 -121 0
-53 121 0
54 -122 0
-54 122 0
55 -123 0
-55 123 0
56 -124 0
-56 124 0
57 -125 0
-57 125 0
58 -126 0
-58 126 0
59 -127 0
-59 127 0
60 -128 0
-60 128 0
61 -129 0
-61 129 0
62 -130 0
-62 130 0
63 -131 0
-63 131 0
64 -132 0
-64 132 0
-65 -1 -33 0
-65 1 33 0
65 1 -33 0
65 -1 33 0
-65 0
-66 32 -64 0
-66 -32 64 0
66 -32 -64 0
66 32 64 0
-66 67 0
-65 67 0
66 65 -67 0
-68 1 -33 0
-68 -1 33 0
68 -1 -33 0
68 1 33 0
68 67 0
